229 300 101 107 146 132 145 115 130 149 138 105 127 134 116 133 128 114 112 147 121 111 134 120 118 150 112 131 138 141 107 128 118 133 110 114 114 104 129 145 102 141 150 103 150 115 136 127 104 122 148 125 133 132 119 125 105 105 131 143 147 138 146 114 120 105 102 134 134 106 102 111 147 102 114 146 142 125 147 146 147 145 145 104 100 138 129 105 144 134 148 114 121 143 128 115 122 105 124 106 111 126 117 107 128 131 103 145 105 150 114 127 118 134 131 118 121 134 123 139 118 146 102 113 138 131 129 135 136 102 141 147 102 132 128 105 137 105 150 117 130 113 144 148 147 124 116 143 107 113 131 150 108 134 113 121 114 142 105 124 118 146 145 120 101 122 125 138 102 149 104 132 137 148 129 133 146 145 125 128 133 131 127 141 114 140 111 102 131 116 126 123 136 145 118 137 141 117 125 143 116 103 124 102 126 128 109 121 147 109 149 129 140 126 120 103 115 131 105 121 122 105 144 107 124 136 119 114 103 144 132 